#######################################
### Exact MIP solver for the HHCRSP ###
#######################################
-- Instance file: new-instances/HHCRSP_50_10_80_1.2_C_RC.txt
-- Max threads: 4
-- Time limit: 999999 seconds
-- Use initial solution: No
Trivial flow violations prevented generating 5714 variables.
Model exported.
Version identifier: 20.1.0.0 | 2020-11-10 | 9bedb6d68
CPXPARAM_Threads                                 4
CPXPARAM_TimeLimit                               999999
Parallel mode: deterministic, using up to 4 threads for concurrent optimization:
 * Starting dual Simplex on 1 thread...
 * Starting Barrier on 3 threads...
Tried aggregator 1 time.
LP Presolve eliminated 1014 rows and 182 columns.
Reduced LP has 3876 rows, 3784 columns, and 28219 nonzeros.
Presolve time = 0.02 sec. (8.61 ticks)
Symmetry aggregator did 1506 additional substitutions.

Iteration log . . .
Iteration:     1   Dual objective     =             0.000000
Iteration:   205   Dual objective     =           142.000000

Dual crossover.
  Dual:  Fixing 61 variables.
       60 DMoves:  Infeasibility  1.28996322e-14  Objective  1.46231691e+02
        0 DMoves:  Infeasibility  1.10381747e-14  Objective  1.46231691e+02
  Dual:  Pushed 6, exchanged 55.
  Primal:  Fixing 18 variables.
       17 PMoves:  Infeasibility  1.84748050e-16  Objective  1.46231691e+02
        0 PMoves:  Infeasibility  1.84748050e-16  Objective  1.46231691e+02
  Primal:  Pushed 10, exchanged 8.

Dual simplex solved model.


Solution status from MIP model:
-- Processing time: 0.037 sec.
-- Memory used: 71.207 MB
-- Best bound: inf
-- Obj value: 146.232
-- Gap: inf%
-- Total distance: 438.695
-- Total tardiness: 0
-- Largest tardiness: 0
